Traveling Salesman Problem/TSP_generados/Aleatorio1621103380_12.tsp
NAME: Aleatorio1621103380_12.tsp
COMMENT: Randomly generated scenario
TYPE: TSP
DIMENSION: 12
EDGE_WEIGHT_TYPE: ATT
NODE_COORD_SECTION
1 12.75 22.13
2 30.53 44.69
3 13.25 44.8
4 29.64 5.58
5 6.25 35.93
6 15.94 45.89
7 28.22 3.54
8 43.31 3.4
9 4.84 14.67
10 30.31 19.37
11 18.93 32.89
12 22.53 20.93
