Traveling Salesman Problem/TSP_generados/Aleatorio1621103380_12.opt.tour
NAME: Aleatorio1621103380_12.opt.tour
COMMENT: Optimal solution for Aleatorio1621103380_12 (154.75461030507316)
TYPE: TOUR
DIMENSION: 12
TOUR_SECTION
1 5 3 6 2 11 12 10 8 4 7 9
-1
EOF
